Geographic Exponential Decay
40 23 249 199 198 139 279 238 111 94 297 233 95 285 300 226 283 180 192 75 121 223 171 59 184 90 110 253 50 211 170 6 189 228 147 3 195 166 58 266 303
p edge 320 327
e 0 47 1.0
e 1 82 5.0
e 1 0 1.0
e 2 30 4.0
e 2 1 4.0
e 3 19 100.0
e 3 104 47.0
e 3 83 40.0
e 3 55 72.0
e 3 6 21.0
e 3 2 37.0
e 4 265 1.0
e 4 3 32.0
e 5 79 1.0
e 5 4 6.0
e 6 254 53.0
e 6 69 85.0
e 6 317 86.0
e 6 291 65.0
e 7 251 23.0
e 7 5 1.0
e 8 157 3.0
e 8 7 1.0
e 9 308 4.0
e 9 8 1.0
e 10 183 5.0
e 10 9 1.0
e 11 270 7.0
e 11 10 1.0
e 12 51 1.0
e 12 11 1.0
e 13 256 7.0
e 13 12 1.0
e 14 231 2.0
e 14 13 1.0
e 15 155 38.0
e 15 227 8.0
e 15 14 12.0
e 16 32 3.0
e 16 15 1.0
e 17 39 1.0
e 17 16 2.0
e 18 253 15.0
e 19 242 9.0
e 20 197 1.0
e 20 17 1.0
e 21 115 2.0
e 21 20 2.0
e 22 287 10.0
e 22 52 23.0
e 22 21 9.0
e 23 24 50.0
e 23 28 93.0
e 23 262 93.0
e 23 33 41.0
e 23 286 11.0
e 23 22 82.0
e 25 292 1.0
e 25 23 34.0
e 26 241 1.0
e 26 25 1.0
e 27 300 8.0
e 27 26 4.0
e 29 171 85.0
e 31 35 2.0
e 31 27 4.0
e 34 285 10.0
e 36 248 4.0
e 36 31 1.0
e 37 94 51.0
e 38 225 4.0
e 38 36 3.0
e 40 84 2.0
e 40 38 11.0
e 41 42 14.0
e 41 211 43.0
e 43 288 1.0
e 43 40 9.0
e 44 45 3.0
e 44 43 12.0
e 46 132 7.0
e 46 44 7.0
e 48 124 1.0
e 48 46 3.0
e 49 191 6.0
e 49 48 1.0
e 50 193 73.0
e 50 318 20.0
e 50 271 55.0
e 50 53 3.0
e 50 236 79.0
e 50 49 46.0
e 54 245 21.0
e 54 50 76.0
e 56 266 14.0
e 57 113 3.0
e 57 54 6.0
e 58 59 20.0
e 58 240 18.0
e 58 267 6.0
e 58 234 81.0
e 58 60 73.0
e 59 173 73.0
e 59 73 29.0
e 59 259 2.0
e 59 192 32.0
e 61 208 1.0
e 61 57 5.0
e 62 194 6.0
e 63 186 41.0
e 64 160 16.0
e 64 161 1.0
e 64 61 4.0
e 65 246 1.0
e 65 64 7.0
e 66 247 7.0
e 66 65 2.0
e 67 243 1.0
e 67 66 9.0
e 68 179 16.0
e 68 313 15.0
e 68 67 14.0
e 70 150 1.0
e 70 68 7.0
e 71 122 1.0
e 71 70 5.0
e 72 257 1.0
e 72 71 1.0
e 74 75 72.0
e 75 126 7.0
e 75 232 85.0
e 75 255 42.0
e 75 238 93.0
e 76 77 1.0
e 76 72 3.0
e 78 138 1.0
e 78 76 1.0
e 80 135 11.0
e 81 175 3.0
e 81 78 11.0
e 85 285 10.0
e 86 263 1.0
e 86 81 11.0
e 87 215 5.0
e 87 86 5.0
e 88 306 43.0
e 89 185 4.0
e 89 87 1.0
e 90 253 88.0
e 90 91 70.0
e 90 92 86.0
e 90 319 92.0
e 90 290 46.0
e 93 129 1.0
e 93 89 3.0
e 94 95 66.0
e 94 266 15.0
e 94 96 75.0
e 94 164 26.0
e 95 106 68.0
e 95 171 71.0
e 95 128 35.0
e 95 296 68.0
e 97 166 81.0
e 98 107 2.0
e 98 93 2.0
e 99 100 5.0
e 99 98 8.0
e 101 133 3.0
e 101 99 4.0
e 102 252 8.0
e 102 101 1.0
e 103 297 42.0
e 105 309 4.0
e 105 102 3.0
e 108 140 1.0
e 108 105 3.0
e 109 250 1.0
e 109 108 1.0
e 110 112 89.0
e 110 251 49.0
e 110 233 15.0
e 110 111 17.0
e 110 202 70.0
e 111 238 74.0
e 111 142 35.0
e 111 272 42.0
e 111 151 90.0
e 114 226 49.0
e 116 117 1.0
e 116 109 5.0
e 118 278 1.0
e 118 116 6.0
e 119 132 20.0
e 120 121 20.0
e 120 123 25.0
e 120 163 24.0
e 120 118 3.0
e 121 125 29.0
e 121 216 14.0
e 121 127 79.0
e 121 130 81.0
e 131 134 11.0
e 131 120 28.0
e 135 223 37.0
e 136 303 24.0
e 137 249 17.0
e 139 161 27.0
e 139 141 87.0
e 139 143 10.0
e 139 144 88.0
e 139 145 98.0
e 146 147 22.0
e 146 131 2.0
e 147 148 90.0
e 147 149 93.0
e 147 204 59.0
e 147 152 15.0
e 153 304 1.0
e 153 146 1.0
e 154 249 23.0
e 155 156 44.0
e 155 158 25.0
e 159 244 17.0
e 159 224 24.0
e 159 153 21.0
e 162 268 2.0
e 162 159 8.0
e 165 166 41.0
e 166 210 88.0
e 166 167 14.0
e 166 297 56.0
e 168 235 21.0
e 168 169 9.0
e 168 162 20.0
e 170 192 46.0
e 170 171 25.0
e 170 172 1.0
e 170 174 7.0
e 170 176 45.0
e 171 172 20.0
e 171 177 48.0
e 178 245 14.0
e 180 284 14.0
e 180 181 6.0
e 180 211 38.0
e 180 182 78.0
e 180 184 49.0
e 184 186 33.0
e 184 187 33.0
e 184 294 94.0
e 184 188 25.0
e 186 189 48.0
e 189 283 92.0
e 189 199 97.0
e 189 260 95.0
e 189 190 30.0
e 192 194 40.0
e 192 199 9.0
e 192 195 28.0
e 195 196 4.0
e 195 198 17.0
e 195 199 24.0
e 195 297 20.0
e 198 199 36.0
e 198 200 93.0
e 198 201 76.0
e 198 229 58.0
e 199 203 7.0
e 205 206 2.0
e 205 168 11.0
e 207 209 3.0
e 207 205 1.0
e 211 212 68.0
e 211 213 68.0
e 211 214 84.0
e 217 310 1.0
e 217 207 4.0
e 218 314 9.0
e 218 217 7.0
e 219 233 65.0
e 220 221 5.0
e 220 218 1.0
e 222 223 65.0
e 223 230 26.0
e 223 237 83.0
e 223 226 51.0
e 226 305 14.0
e 226 228 29.0
e 226 274 11.0
e 228 233 49.0
e 228 238 46.0
e 228 239 73.0
e 228 249 80.0
e 233 238 53.0
e 233 272 17.0
e 238 249 53.0
e 249 253 41.0
e 253 258 30.0
e 253 264 45.0
e 261 266 52.0
e 266 269 27.0
e 266 273 32.0
e 275 276 11.0
e 275 220 2.0
e 277 279 12.0
e 277 275 1.0
e 279 280 38.0
e 279 281 37.0
e 279 316 42.0
e 279 282 31.0
e 283 285 33.0
e 283 289 7.0
e 283 293 63.0
e 283 295 82.0
e 285 306 80.0
e 285 297 20.0
e 297 298 76.0
e 299 315 2.0
e 299 277 1.0
e 300 301 4.0
e 300 302 9.0
e 300 303 89.0
e 300 311 63.0
e 303 306 60.0
e 303 307 86.0
e 303 312 100.0
